/*********************************************
 * OPL 12.6.1.0 Data
 * Author: Administrator
 * Creation Date: 2018-9-10 at обнГ8:19:45
 *********************************************/
Products =  { "kluski", "capellini", "fettuccine" };
Resources = { "flour", "eggs" };
Product =#[
           kluski:<100,0.6,0.8,[0.5,0.2]>,
           capellini:<200,0.8,0.9,[0.4,0.4]>,
           fettuccine:<300,0.3,0.4,[0.3,0.6]>
                       ]#;
capacity = [20,40];